9
-1 54 56 40 66 76 31 8 44
39 -1 23 37 38 18 82 29 41
33 15 -1 58 4 30 77 6 73
86 21 45 -1 72 70 29 77 73
97 12 86 90 -1 36 55 67 55
74 31 52 50 50 -1 24 66 30
7 91 7 37 57 87 -1 83 45
9 9 58 21 88 22 46 -1 30
13 68 91 62 55 10 59 24 -1
